Optimal - objective value 198.82000000
      0 x_0                    6                       0
      3 x_3                    6                       0
     13 x_13                   6                       0
     18 x_18                   6                       0
     31 x_31                   2                       0
     32 x_32                   4                       0
     35 x_35                   2                       0
     43 x_43                   4                       0
     48 y_0                    1                   27.38
     51 y_3                    1                    10.8
     61 y_13                   1                       0
     66 y_18                   1                   18.42
     79 y_31                   1                   11.13
     80 y_32                   1                    6.87
     83 y_35                   1                   18.96
     91 y_43                   1                    9.73
